\* Source Pyomo model name=unknown *\

min 
cost:
+0.01 PowerGeneratingWater(1)
+0.01 PowerGeneratingWater(10)
+0.01 PowerGeneratingWater(11)
+0.01 PowerGeneratingWater(12)
+0.01 PowerGeneratingWater(13)
+0.01 PowerGeneratingWater(14)
+0.01 PowerGeneratingWater(15)
+0.01 PowerGeneratingWater(16)
+0.01 PowerGeneratingWater(17)
+0.01 PowerGeneratingWater(18)
+0.01 PowerGeneratingWater(19)
+0.01 PowerGeneratingWater(2)
+0.01 PowerGeneratingWater(20)
+0.01 PowerGeneratingWater(21)
+0.01 PowerGeneratingWater(22)
+0.01 PowerGeneratingWater(23)
+0.01 PowerGeneratingWater(24)
+0.01 PowerGeneratingWater(3)
+0.01 PowerGeneratingWater(4)
+0.01 PowerGeneratingWater(5)
+0.01 PowerGeneratingWater(6)
+0.01 PowerGeneratingWater(7)
+0.01 PowerGeneratingWater(8)
+0.01 PowerGeneratingWater(9)
+333.33333333333331 Ppv
+50000 Pwind

s.t.

c_l_EnergyDemand(1)_:
+0.0001 PowerGeneratingWater(1)
+0.35082398400000003 Pwind
>= 5.6008825329216005

c_l_EnergyDemand(2)_:
+0.0001 PowerGeneratingWater(2)
+0.672466656 Pwind
>= 5.7845159089632006

c_l_EnergyDemand(3)_:
+0.0001 PowerGeneratingWater(3)
+0.38713856400000002 Pwind
>= 6.2436065228064006

c_l_EnergyDemand(4)_:
+0.0001 PowerGeneratingWater(4)
+0.14558244000000001 Pwind
>= 6.9781472007120016

c_l_EnergyDemand(5)_:
+0.0001 PowerGeneratingWater(5)
+0.12256115999999999 Pwind
>= 7.8045260878559999

c_l_EnergyDemand(6)_:
+0.0001 PowerGeneratingWater(6)
+0.14558244000000001 Pwind
>= 8.3553975210240008

c_l_EnergyDemand(7)_:
+0.0001 PowerGeneratingWater(7)
+1.1521022583701999 Ppv
+0.168602844 Pwind
>= 8.6308691063040008

c_l_EnergyDemand(8)_:
+0.0001 PowerGeneratingWater(8)
+2.2851615042003597 Ppv
+0.28532809199999998 Pwind
>= 8.9981645533440009

c_l_EnergyDemand(9)_:
+0.0001 PowerGeneratingWater(9)
+3.25635514348836 Ppv
+0.42345314399999995 Pwind
>= 8.7226929680640009

c_l_EnergyDemand(10)_:
+0.0001 PowerGeneratingWater(10)
+3.9657073604143194 Ppv
+0.77006181600000001 Pwind
>= 8.6308691063040008

c_l_EnergyDemand(11)_:
+0.0001 PowerGeneratingWater(11)
+4.3037208329102405 Ppv
+1.3747637399999999 Pwind
>= 8.6308691063040008

c_l_EnergyDemand(12)_:
+0.0001 PowerGeneratingWater(12)
+4.2799170672417599 Ppv
+2.296892148 Pwind
>= 9.2735644012320009

c_l_EnergyDemand(13)_:
+0.0001 PowerGeneratingWater(13)
+3.88953531028044 Ppv
+2.8970546400000003 Pwind
>= 8.9981645533440009

c_l_EnergyDemand(14)_:
+0.0001 PowerGeneratingWater(14)
+3.1659008339428802 Ppv
+2.7932985720000003 Pwind
>= 8.3553975210240008

c_l_EnergyDemand(15)_:
+0.0001 PowerGeneratingWater(15)
+2.1756641821236005 Ppv
+1.845555048 Pwind
>= 8.2635736592640008

c_l_EnergyDemand(16)_:
+0.0001 PowerGeneratingWater(16)
+1.01880117062496 Ppv
+0.82356088799999994 Pwind
>= 8.2635736592640008

c_l_EnergyDemand(17)_:
+0.0001 PowerGeneratingWater(17)
+0.090454309541342648 Ppv
+0.38713856400000002 Pwind
>= 9.0899166777120008

c_l_EnergyDemand(18)_:
+0.0001 PowerGeneratingWater(18)
+0.35082398400000003 Pwind
>= 9.916331433552001

c_l_EnergyDemand(19)_:
+0.0001 PowerGeneratingWater(19)
+0.28532809199999998 Pwind
>= 10.926322175520001

c_l_EnergyDemand(20)_:
+0.0001 PowerGeneratingWater(20)
+0.35082398400000003 Pwind
>= 10.559026728480001

c_l_EnergyDemand(21)_:
+0.0001 PowerGeneratingWater(21)
+0.49608230399999997 Pwind
>= 9.7326837100320009

c_l_EnergyDemand(22)_:
+0.0001 PowerGeneratingWater(22)
+0.58427448000000004 Pwind
>= 8.7226929680640009

c_l_EnergyDemand(23)_:
+0.0001 PowerGeneratingWater(23)
+0.54017839199999995 Pwind
>= 7.8963499496159999

c_l_EnergyDemand(24)_:
+0.0001 PowerGeneratingWater(24)
+0.45976772399999999 Pwind
>= 5.8763325969840006

c_u_MaxWaterPower(1)_:
+0.0001 PowerGeneratingWater(1)
<= 100

c_u_MaxWaterPower(2)_:
+0.0001 PowerGeneratingWater(2)
<= 100

c_u_MaxWaterPower(3)_:
+0.0001 PowerGeneratingWater(3)
<= 100

c_u_MaxWaterPower(4)_:
+0.0001 PowerGeneratingWater(4)
<= 100

c_u_MaxWaterPower(5)_:
+0.0001 PowerGeneratingWater(5)
<= 100

c_u_MaxWaterPower(6)_:
+0.0001 PowerGeneratingWater(6)
<= 100

c_u_MaxWaterPower(7)_:
+0.0001 PowerGeneratingWater(7)
<= 100

c_u_MaxWaterPower(8)_:
+0.0001 PowerGeneratingWater(8)
<= 100

c_u_MaxWaterPower(9)_:
+0.0001 PowerGeneratingWater(9)
<= 100

c_u_MaxWaterPower(10)_:
+0.0001 PowerGeneratingWater(10)
<= 100

c_u_MaxWaterPower(11)_:
+0.0001 PowerGeneratingWater(11)
<= 100

c_u_MaxWaterPower(12)_:
+0.0001 PowerGeneratingWater(12)
<= 100

c_u_MaxWaterPower(13)_:
+0.0001 PowerGeneratingWater(13)
<= 100

c_u_MaxWaterPower(14)_:
+0.0001 PowerGeneratingWater(14)
<= 100

c_u_MaxWaterPower(15)_:
+0.0001 PowerGeneratingWater(15)
<= 100

c_u_MaxWaterPower(16)_:
+0.0001 PowerGeneratingWater(16)
<= 100

c_u_MaxWaterPower(17)_:
+0.0001 PowerGeneratingWater(17)
<= 100

c_u_MaxWaterPower(18)_:
+0.0001 PowerGeneratingWater(18)
<= 100

c_u_MaxWaterPower(19)_:
+0.0001 PowerGeneratingWater(19)
<= 100

c_u_MaxWaterPower(20)_:
+0.0001 PowerGeneratingWater(20)
<= 100

c_u_MaxWaterPower(21)_:
+0.0001 PowerGeneratingWater(21)
<= 100

c_u_MaxWaterPower(22)_:
+0.0001 PowerGeneratingWater(22)
<= 100

c_u_MaxWaterPower(23)_:
+0.0001 PowerGeneratingWater(23)
<= 100

c_u_MaxWaterPower(24)_:
+0.0001 PowerGeneratingWater(24)
<= 100

c_u_WaterDemand(1)_:
+1 PowerGeneratingWater(1)
<= 1000000

c_u_WaterDemand(2)_:
+1 PowerGeneratingWater(1)
+1 PowerGeneratingWater(2)
<= 1000003

c_u_WaterDemand(3)_:
+1 PowerGeneratingWater(1)
+1 PowerGeneratingWater(2)
+1 PowerGeneratingWater(3)
<= 1000006

c_u_WaterDemand(4)_:
+1 PowerGeneratingWater(1)
+1 PowerGeneratingWater(2)
+1 PowerGeneratingWater(3)
+1 PowerGeneratingWater(4)
<= 1000009

c_u_WaterDemand(5)_:
+1 PowerGeneratingWater(1)
+1 PowerGeneratingWater(2)
+1 PowerGeneratingWater(3)
+1 PowerGeneratingWater(4)
+1 PowerGeneratingWater(5)
<= 1000012

c_u_WaterDemand(6)_:
+1 PowerGeneratingWater(1)
+1 PowerGeneratingWater(2)
+1 PowerGeneratingWater(3)
+1 PowerGeneratingWater(4)
+1 PowerGeneratingWater(5)
+1 PowerGeneratingWater(6)
<= 1000015

c_u_WaterDemand(7)_:
+1 PowerGeneratingWater(1)
+1 PowerGeneratingWater(2)
+1 PowerGeneratingWater(3)
+1 PowerGeneratingWater(4)
+1 PowerGeneratingWater(5)
+1 PowerGeneratingWater(6)
+1 PowerGeneratingWater(7)
<= 1000018

c_u_WaterDemand(8)_:
+1 PowerGeneratingWater(1)
+1 PowerGeneratingWater(2)
+1 PowerGeneratingWater(3)
+1 PowerGeneratingWater(4)
+1 PowerGeneratingWater(5)
+1 PowerGeneratingWater(6)
+1 PowerGeneratingWater(7)
+1 PowerGeneratingWater(8)
<= 1000021

c_u_WaterDemand(9)_:
+1 PowerGeneratingWater(1)
+1 PowerGeneratingWater(2)
+1 PowerGeneratingWater(3)
+1 PowerGeneratingWater(4)
+1 PowerGeneratingWater(5)
+1 PowerGeneratingWater(6)
+1 PowerGeneratingWater(7)
+1 PowerGeneratingWater(8)
+1 PowerGeneratingWater(9)
<= 1000024

c_u_WaterDemand(10)_:
+1 PowerGeneratingWater(1)
+1 PowerGeneratingWater(10)
+1 PowerGeneratingWater(2)
+1 PowerGeneratingWater(3)
+1 PowerGeneratingWater(4)
+1 PowerGeneratingWater(5)
+1 PowerGeneratingWater(6)
+1 PowerGeneratingWater(7)
+1 PowerGeneratingWater(8)
+1 PowerGeneratingWater(9)
<= 1000027

c_u_WaterDemand(11)_:
+1 PowerGeneratingWater(1)
+1 PowerGeneratingWater(10)
+1 PowerGeneratingWater(11)
+1 PowerGeneratingWater(2)
+1 PowerGeneratingWater(3)
+1 PowerGeneratingWater(4)
+1 PowerGeneratingWater(5)
+1 PowerGeneratingWater(6)
+1 PowerGeneratingWater(7)
+1 PowerGeneratingWater(8)
+1 PowerGeneratingWater(9)
<= 1000030

c_u_WaterDemand(12)_:
+1 PowerGeneratingWater(1)
+1 PowerGeneratingWater(10)
+1 PowerGeneratingWater(11)
+1 PowerGeneratingWater(12)
+1 PowerGeneratingWater(2)
+1 PowerGeneratingWater(3)
+1 PowerGeneratingWater(4)
+1 PowerGeneratingWater(5)
+1 PowerGeneratingWater(6)
+1 PowerGeneratingWater(7)
+1 PowerGeneratingWater(8)
+1 PowerGeneratingWater(9)
<= 1000033

c_u_WaterDemand(13)_:
+1 PowerGeneratingWater(1)
+1 PowerGeneratingWater(10)
+1 PowerGeneratingWater(11)
+1 PowerGeneratingWater(12)
+1 PowerGeneratingWater(13)
+1 PowerGeneratingWater(2)
+1 PowerGeneratingWater(3)
+1 PowerGeneratingWater(4)
+1 PowerGeneratingWater(5)
+1 PowerGeneratingWater(6)
+1 PowerGeneratingWater(7)
+1 PowerGeneratingWater(8)
+1 PowerGeneratingWater(9)
<= 1000036

c_u_WaterDemand(14)_:
+1 PowerGeneratingWater(1)
+1 PowerGeneratingWater(10)
+1 PowerGeneratingWater(11)
+1 PowerGeneratingWater(12)
+1 PowerGeneratingWater(13)
+1 PowerGeneratingWater(14)
+1 PowerGeneratingWater(2)
+1 PowerGeneratingWater(3)
+1 PowerGeneratingWater(4)
+1 PowerGeneratingWater(5)
+1 PowerGeneratingWater(6)
+1 PowerGeneratingWater(7)
+1 PowerGeneratingWater(8)
+1 PowerGeneratingWater(9)
<= 1000039

c_u_WaterDemand(15)_:
+1 PowerGeneratingWater(1)
+1 PowerGeneratingWater(10)
+1 PowerGeneratingWater(11)
+1 PowerGeneratingWater(12)
+1 PowerGeneratingWater(13)
+1 PowerGeneratingWater(14)
+1 PowerGeneratingWater(15)
+1 PowerGeneratingWater(2)
+1 PowerGeneratingWater(3)
+1 PowerGeneratingWater(4)
+1 PowerGeneratingWater(5)
+1 PowerGeneratingWater(6)
+1 PowerGeneratingWater(7)
+1 PowerGeneratingWater(8)
+1 PowerGeneratingWater(9)
<= 1000042

c_u_WaterDemand(16)_:
+1 PowerGeneratingWater(1)
+1 PowerGeneratingWater(10)
+1 PowerGeneratingWater(11)
+1 PowerGeneratingWater(12)
+1 PowerGeneratingWater(13)
+1 PowerGeneratingWater(14)
+1 PowerGeneratingWater(15)
+1 PowerGeneratingWater(16)
+1 PowerGeneratingWater(2)
+1 PowerGeneratingWater(3)
+1 PowerGeneratingWater(4)
+1 PowerGeneratingWater(5)
+1 PowerGeneratingWater(6)
+1 PowerGeneratingWater(7)
+1 PowerGeneratingWater(8)
+1 PowerGeneratingWater(9)
<= 1000045

c_u_WaterDemand(17)_:
+1 PowerGeneratingWater(1)
+1 PowerGeneratingWater(10)
+1 PowerGeneratingWater(11)
+1 PowerGeneratingWater(12)
+1 PowerGeneratingWater(13)
+1 PowerGeneratingWater(14)
+1 PowerGeneratingWater(15)
+1 PowerGeneratingWater(16)
+1 PowerGeneratingWater(17)
+1 PowerGeneratingWater(2)
+1 PowerGeneratingWater(3)
+1 PowerGeneratingWater(4)
+1 PowerGeneratingWater(5)
+1 PowerGeneratingWater(6)
+1 PowerGeneratingWater(7)
+1 PowerGeneratingWater(8)
+1 PowerGeneratingWater(9)
<= 1000048

c_u_WaterDemand(18)_:
+1 PowerGeneratingWater(1)
+1 PowerGeneratingWater(10)
+1 PowerGeneratingWater(11)
+1 PowerGeneratingWater(12)
+1 PowerGeneratingWater(13)
+1 PowerGeneratingWater(14)
+1 PowerGeneratingWater(15)
+1 PowerGeneratingWater(16)
+1 PowerGeneratingWater(17)
+1 PowerGeneratingWater(18)
+1 PowerGeneratingWater(2)
+1 PowerGeneratingWater(3)
+1 PowerGeneratingWater(4)
+1 PowerGeneratingWater(5)
+1 PowerGeneratingWater(6)
+1 PowerGeneratingWater(7)
+1 PowerGeneratingWater(8)
+1 PowerGeneratingWater(9)
<= 1000051

c_u_WaterDemand(19)_:
+1 PowerGeneratingWater(1)
+1 PowerGeneratingWater(10)
+1 PowerGeneratingWater(11)
+1 PowerGeneratingWater(12)
+1 PowerGeneratingWater(13)
+1 PowerGeneratingWater(14)
+1 PowerGeneratingWater(15)
+1 PowerGeneratingWater(16)
+1 PowerGeneratingWater(17)
+1 PowerGeneratingWater(18)
+1 PowerGeneratingWater(19)
+1 PowerGeneratingWater(2)
+1 PowerGeneratingWater(3)
+1 PowerGeneratingWater(4)
+1 PowerGeneratingWater(5)
+1 PowerGeneratingWater(6)
+1 PowerGeneratingWater(7)
+1 PowerGeneratingWater(8)
+1 PowerGeneratingWater(9)
<= 1000054

c_u_WaterDemand(20)_:
+1 PowerGeneratingWater(1)
+1 PowerGeneratingWater(10)
+1 PowerGeneratingWater(11)
+1 PowerGeneratingWater(12)
+1 PowerGeneratingWater(13)
+1 PowerGeneratingWater(14)
+1 PowerGeneratingWater(15)
+1 PowerGeneratingWater(16)
+1 PowerGeneratingWater(17)
+1 PowerGeneratingWater(18)
+1 PowerGeneratingWater(19)
+1 PowerGeneratingWater(2)
+1 PowerGeneratingWater(20)
+1 PowerGeneratingWater(3)
+1 PowerGeneratingWater(4)
+1 PowerGeneratingWater(5)
+1 PowerGeneratingWater(6)
+1 PowerGeneratingWater(7)
+1 PowerGeneratingWater(8)
+1 PowerGeneratingWater(9)
<= 1000057

c_u_WaterDemand(21)_:
+1 PowerGeneratingWater(1)
+1 PowerGeneratingWater(10)
+1 PowerGeneratingWater(11)
+1 PowerGeneratingWater(12)
+1 PowerGeneratingWater(13)
+1 PowerGeneratingWater(14)
+1 PowerGeneratingWater(15)
+1 PowerGeneratingWater(16)
+1 PowerGeneratingWater(17)
+1 PowerGeneratingWater(18)
+1 PowerGeneratingWater(19)
+1 PowerGeneratingWater(2)
+1 PowerGeneratingWater(20)
+1 PowerGeneratingWater(21)
+1 PowerGeneratingWater(3)
+1 PowerGeneratingWater(4)
+1 PowerGeneratingWater(5)
+1 PowerGeneratingWater(6)
+1 PowerGeneratingWater(7)
+1 PowerGeneratingWater(8)
+1 PowerGeneratingWater(9)
<= 1000060

c_u_WaterDemand(22)_:
+1 PowerGeneratingWater(1)
+1 PowerGeneratingWater(10)
+1 PowerGeneratingWater(11)
+1 PowerGeneratingWater(12)
+1 PowerGeneratingWater(13)
+1 PowerGeneratingWater(14)
+1 PowerGeneratingWater(15)
+1 PowerGeneratingWater(16)
+1 PowerGeneratingWater(17)
+1 PowerGeneratingWater(18)
+1 PowerGeneratingWater(19)
+1 PowerGeneratingWater(2)
+1 PowerGeneratingWater(20)
+1 PowerGeneratingWater(21)
+1 PowerGeneratingWater(22)
+1 PowerGeneratingWater(3)
+1 PowerGeneratingWater(4)
+1 PowerGeneratingWater(5)
+1 PowerGeneratingWater(6)
+1 PowerGeneratingWater(7)
+1 PowerGeneratingWater(8)
+1 PowerGeneratingWater(9)
<= 1000063

c_u_WaterDemand(23)_:
+1 PowerGeneratingWater(1)
+1 PowerGeneratingWater(10)
+1 PowerGeneratingWater(11)
+1 PowerGeneratingWater(12)
+1 PowerGeneratingWater(13)
+1 PowerGeneratingWater(14)
+1 PowerGeneratingWater(15)
+1 PowerGeneratingWater(16)
+1 PowerGeneratingWater(17)
+1 PowerGeneratingWater(18)
+1 PowerGeneratingWater(19)
+1 PowerGeneratingWater(2)
+1 PowerGeneratingWater(20)
+1 PowerGeneratingWater(21)
+1 PowerGeneratingWater(22)
+1 PowerGeneratingWater(23)
+1 PowerGeneratingWater(3)
+1 PowerGeneratingWater(4)
+1 PowerGeneratingWater(5)
+1 PowerGeneratingWater(6)
+1 PowerGeneratingWater(7)
+1 PowerGeneratingWater(8)
+1 PowerGeneratingWater(9)
<= 1000066

c_u_WaterDemand(24)_:
+1 PowerGeneratingWater(1)
+1 PowerGeneratingWater(10)
+1 PowerGeneratingWater(11)
+1 PowerGeneratingWater(12)
+1 PowerGeneratingWater(13)
+1 PowerGeneratingWater(14)
+1 PowerGeneratingWater(15)
+1 PowerGeneratingWater(16)
+1 PowerGeneratingWater(17)
+1 PowerGeneratingWater(18)
+1 PowerGeneratingWater(19)
+1 PowerGeneratingWater(2)
+1 PowerGeneratingWater(20)
+1 PowerGeneratingWater(21)
+1 PowerGeneratingWater(22)
+1 PowerGeneratingWater(23)
+1 PowerGeneratingWater(24)
+1 PowerGeneratingWater(3)
+1 PowerGeneratingWater(4)
+1 PowerGeneratingWater(5)
+1 PowerGeneratingWater(6)
+1 PowerGeneratingWater(7)
+1 PowerGeneratingWater(8)
+1 PowerGeneratingWater(9)
<= 1000069

c_e_ONE_VAR_CONSTANT: 
ONE_VAR_CONSTANT = 1.0

bounds
   0 <= Pwind <= +inf
   0 <= Ppv <= +inf
   0 <= PowerGeneratingWater(1) <= +inf
   0 <= PowerGeneratingWater(2) <= +inf
   0 <= PowerGeneratingWater(3) <= +inf
   0 <= PowerGeneratingWater(4) <= +inf
   0 <= PowerGeneratingWater(5) <= +inf
   0 <= PowerGeneratingWater(6) <= +inf
   0 <= PowerGeneratingWater(7) <= +inf
   0 <= PowerGeneratingWater(8) <= +inf
   0 <= PowerGeneratingWater(9) <= +inf
   0 <= PowerGeneratingWater(10) <= +inf
   0 <= PowerGeneratingWater(11) <= +inf
   0 <= PowerGeneratingWater(12) <= +inf
   0 <= PowerGeneratingWater(13) <= +inf
   0 <= PowerGeneratingWater(14) <= +inf
   0 <= PowerGeneratingWater(15) <= +inf
   0 <= PowerGeneratingWater(16) <= +inf
   0 <= PowerGeneratingWater(17) <= +inf
   0 <= PowerGeneratingWater(18) <= +inf
   0 <= PowerGeneratingWater(19) <= +inf
   0 <= PowerGeneratingWater(20) <= +inf
   0 <= PowerGeneratingWater(21) <= +inf
   0 <= PowerGeneratingWater(22) <= +inf
   0 <= PowerGeneratingWater(23) <= +inf
   0 <= PowerGeneratingWater(24) <= +inf
end
